************************************************************************
file with basedata            : md329_.bas
initial value random generator: 1840311150
************************************************************************
projects                      :  1
jobs (incl. supersource/sink ):  22
horizon                       :  165
RESOURCES
  - renewable                 :  2   R
  - nonrenewable              :  2   N
  - doubly constrained        :  0   D
************************************************************************
PROJECT INFORMATION:
pronr.  #jobs rel.date duedate tardcost  MPM-Time
    1     20      0       23        8       23
************************************************************************
PRECEDENCE RELATIONS:
jobnr.    #modes  #successors   successors
   1        1          3           2   3   4
   2        3          3           6   8  10
   3        3          3           5   6   8
   4        3          3          10  18  21
   5        3          2          17  18
   6        3          1           7
   7        3          1           9
   8        3          2          11  12
   9        3          3          11  12  14
  10        3          2          13  14
  11        3          2          17  18
  12        3          3          13  15  16
  13        3          1          19
  14        3          2          15  19
  15        3          1          20
  16        3          2          20  21
  17        3          2          20  21
  18        3          1          19
  19        3          1          22
  20        3          1          22
  21        3          1          22
  22        1          0        
************************************************************************
REQUESTS/DURATIONS:
jobnr. mode duration  R 1  R 2  N 1  N 2
------------------------------------------------------------------------
  1      1     0       0    0    0    0
  2      1     3       1    0    0    8
         2     8       0    9   10    0
         3     9       0    2    8    0
  3      1     1       6    0    7    0
         2     5       3    0    0    8
         3     8       0    6    6    0
  4      1     9       0    7    0   10
         2    10       0    6    8    0
         3    10       6    0    9    0
  5      1     1       0    4    7    0
         2     8       0    4    0    3
         3    10       0    1    0    1
  6      1     4       7    0    4    0
         2     7       6    0    0    9
         3     7       0    4    2    0
  7      1     3       9    0    0    9
         2     6       9    0    4    0
         3     9       8    0    0    7
  8      1     6       5    0    6    0
         2     9       0    4    4    0
         3    10       0    4    0    8
  9      1     2       0    5    0    8
         2     3       0    4    0    8
         3     5       0    2    0    8
 10      1     2       8    0    0    5
         2     3       6    0    0    4
         3     7       2    0    0    3
 11      1     1       0    6    0    6
         2     6       0    4    8    0
         3     9       2    0    0    5
 12      1     3       6    0    2    0
         2     6       0    6    1    0
         3     9       0    3    0    4
 13      1     5       0    7    1    0
         2     5       6    0    0    5
         3     9       0    9    0    5
 14      1     1       0    9    0    5
         2     5       6    0    4    0
         3     7       3    0    0    3
 15      1     3       2    0    1    0
         2     7       2    0    0    5
         3     8       0    7    0    4
 16      1     3       0    6    8    0
         2     9       0    2    0    7
         3     9       7    0    0    6
 17      1     2       0    5    8    0
         2     5       4    0    4    0
         3     8       3    0    2    0
 18      1     2       0    3    7    0
         2     6       0    3    4    0
         3     6       7    0    0    7
 19      1     3       0   10    1    0
         2     7       0    9    0    6
         3    10       7    0    0    6
 20      1     2       5    0    0    9
         2     6       0    9    0    6
         3     9       4    0    0    5
 21      1     1       0    7    0    1
         2     4       8    0    0    1
         3     6       4    0    6    0
 22      1     0       0    0    0    0
************************************************************************
RESOURCEAVAILABILITIES:
  R 1  R 2  N 1  N 2
   11    7   48   70
************************************************************************
MAXIMAL LAGS:
from  to  type  delay
    1   12   ES      0
    1    2   ES      0
    2   12   ES      0
    1    3   ES      0
    3   12   ES      0
    1    4   ES      0
    4   12   ES      0
    1    5   ES      0
    5   12   ES      0
    1    6   ES      0
    6   12   ES      0
    1    7   ES      0
    7   12   ES      0
    1    8   ES      0
    8   12   ES      0
    1    9   ES      0
    9   12   ES      0
    1   10   ES      0
   10   12   ES      0
    1   11   ES      0
   11   12   ES      0
    1   12   ES      0
    2    6   SS      7
    2    6   SE     -7
    2    6   ES      7
    2    6   EE     -6
    2    8   SS     -7
    2    8   SE     11
    2    8   ES     -2
    2    8   EE      2
    2   10   SS      4
    2   10   SE      7
    2   10   ES    -11
    2   10   EE      5
    3    5   SS      4
    3    5   SE     -2
    3    5   ES    -11
    3    5   EE      1
    3    6   SS      6
    3    6   SE    -12
    3    6   ES     -6
    3    6   EE    -11
    3    8   SS     10
    3    8   SE     12
    3    8   ES     -5
    3    8   EE     -3
    4   10   SS     11
    4   10   SE     11
    4   10   ES      3
    4   10   EE     11
    4   18   SS     11
    4   18   SE     12
    4   18   ES     11
    4   18   EE    -10
    4   21   SS    -10
    4   21   SE     -7
    4   21   ES    -11
    4   21   EE     -8
    5   17   SS      3
    5   17   SE     -6
    5   17   ES    -12
    5   17   EE      8
    5   18   SS     -8
    5   18   SE     -5
    5   18   ES      4
    5   18   EE      8
    6    7   SS     -1
    6    7   SE      8
    6    7   ES      6
    6    7   EE     -2
    7    9   SS     10
    7    9   SE     -9
    7    9   ES     10
    7    9   EE      9
    8   11   SS     -8
    8   11   SE      6
    8   11   ES      8
    8   11   EE     -8
    9   11   SS    -11
    9   11   SE      2
    9   11   ES     -8
    9   11   EE     -8
    9   14   SS     -6
    9   14   SE    -11
    9   14   ES     -6
    9   14   EE     -5
   10   13   SS     -1
   10   13   SE     11
   10   13   ES      5
   10   13   EE     -8
   10   14   SS     -5
   10   14   SE     -5
   10   14   ES      6
   10   14   EE      5
   11   17   SS      7
   11   17   SE      9
   11   17   ES     -1
   11   17   EE    -10
   11   18   SS     -9
   11   18   SE     10
   11   18   ES     -9
   11   18   EE     -5
   12   13   SS      8
   12   13   SE     12
   12   13   ES      7
   12   13   EE      6
   12   15   SS      3
   12   15   SE     12
   12   15   ES     11
   12   15   EE      3
   12   16   SS     -5
   12   16   SE      5
   12   16   ES      9
   12   16   EE      2
   13   19   SS      7
   13   19   SE     -7
   13   19   ES      2
   13   19   EE      5
   14   15   SS      2
   14   15   SE      0
   14   15   ES      2
   14   15   EE      5
   14   19   SS     -7
   14   19   SE     -5
   19   14   SE      0
   14   19   ES      0
   14   19   EE    -12
   15   20   SS      8
   15   20   SE      5
   15   20   ES     10
   15   20   EE     -3
   16   20   SS     -7
   16   20   SE     -8
   16   20   ES      6
   16   20   EE     12
   16   21   SS      0
   16   21   SE     12
   16   21   ES      1
   16   21   EE     -2
   17   20   SS     -9
   17   20   SE     -3
   17   20   ES     -4
   17   20   EE      9
   17   21   SS     -4
   17   21   SE      4
   17   21   ES      0
   17   21   EE     -2
   18   19   SS      2
   18   19   SE     -4
   18   19   ES     -6
   18   19   EE    -12
   19   22   SS      0
   19   22   SE     -8
   19   22   ES    -12
   19   22   EE      0
   20   22   SS      4
   20   22   SE    -10
   20   22   ES     -3
   20   22   EE      9
   21   22   SS      9
   21   22   SE      5
   21   22   ES      8
   21   22   EE     -3
************************************************************************
